<number of tasks>
58

<cycle time>
92

<task times>
1 10
2 53
3 41
4 36
5 35
6 17
7 34
8 23
9 14
10 52
11 33
12 34
13 12
14 52
15 12
16 33
17 44
18 7
19 15
20 13
21 29
22 37
23 43
24 23
25 24
26 9
27 16
28 12
29 26
30 22
31 51
32 47
33 34
34 23
35 12
36 52
37 12
38 33
39 44
40 7
41 15
42 13
43 29
44 37
45 43
46 23
47 24
48 9
49 16
50 12
51 26
52 12
53 52
54 12
55 33
56 44
57 7
58 15

<precedence relations>
1,9
2,25
3,21
3,22
4,10
5,36
6,23
6,24
7,43
8,44
9,11
11,13
11,14
11,15
12,17
13,17
14,17
15,17
16,18
17,20
18,19
19,23
20,21
20,25
21,26
21,44
22,27
23,31
24,31
25,38
26,29
27,30
28,32
28,33
29,31
30,34
31,36
32,45
33,35
34,36
35,43
36,37
36,38
37,39
37,40
37,41
38,52
39,43
40,43
41,42
42,43
43,45
44,45
45,46
45,48
45,49
46,47
46,50
47,51
48,55
49,58
50,58
51,52
52,53
53,54
54,55
54,56
55,57
56,57
57,58

<setup times forward>
1,3:5
1,4:4
1,5:2
1,7:3
1,8:2
1,9:5
1,10:5
1,12:2
1,16:1
1,18:1
1,19:3
1,22:5
1,23:3
1,27:4
1,30:4
1,32:2
1,33:3
1,34:3
1,35:1
2,3:5
2,4:4
2,5:2
2,7:3
2,8:2
2,9:5
2,10:5
2,11:2
2,12:2
2,14:1
2,15:2
2,16:1
2,18:1
2,19:3
2,21:4
2,22:5
2,23:3
2,25:4
2,26:3
2,27:4
2,29:3
2,30:4
2,31:2
2,32:2
2,33:3
2,34:3
2,35:1
2,36:6
2,37:6
2,39:1
2,40:1
2,41:6
2,42:6
2,43:1
2,44:2
2,45:2
2,46:4
2,47:4
2,48:4
2,49:2
2,50:5
2,51:7
3,1:5
3,2:5
3,4:1
3,5:3
3,6:5
3,7:8
3,8:3
3,11:7
3,12:3
3,13:5
3,14:4
3,15:7
3,16:4
3,17:5
3,18:4
3,19:8
3,20:5
3,21:9
3,23:8
3,24:5
3,25:9
3,28:5
3,32:7
3,33:2
3,35:6
4,1:4
4,2:4
4,3:1
4,5:2
4,6:4
4,7:7
4,8:2
4,9:1
4,10:1
4,11:6
4,12:2
4,13:4
4,14:3
4,15:6
4,16:3
4,17:4
4,18:3
4,19:7
4,20:4
4,21:8
4,22:1
4,23:7
4,24:4
4,25:8
4,26:1
4,27:8
4,28:4
4,29:1
4,30:8
4,31:6
4,32:6
4,33:1
4,34:1
4,35:5
4,36:10
4,37:10
4,38:2
4,39:5
4,40:5
4,41:10
4,42:10
4,43:5
4,44:6
4,45:2
4,49:2
4,50:1
4,51:11
4,52:11
4,53:11
4,54:10
4,55:10
4,56:10
4,57:1
4,58:1
5,1:2
5,2:2
5,3:3
5,4:2
5,6:2
5,7:5
5,9:3
5,10:3
5,11:4
5,13:2
5,14:1
5,15:4
5,16:1
5,17:2
5,18:1
5,19:5
5,20:2
5,21:6
5,22:3
5,23:5
5,24:2
5,25:6
5,26:1
5,27:6
5,28:2
5,29:1
5,30:6
5,31:4
5,32:4
5,33:1
5,34:1
5,35:3
5,36:8
5,44:4
6,3:5
6,4:4
6,5:2
6,7:3
6,8:2
6,9:5
6,10:5
6,11:2
6,12:2
6,14:1
6,15:2
6,16:1
6,18:1
6,19:3
6,21:4
6,22:5
6,23:3
6,25:4
6,26:3
6,27:4
6,29:3
6,30:4
6,32:2
6,33:3
6,34:3
6,35:1
6,44:2
7,1:3
7,2:3
7,3:8
7,4:7
7,5:5
7,6:3
7,8:5
7,9:8
7,10:8
7,11:1
7,12:5
7,13:3
7,14:4
7,15:1
7,16:4
7,17:3
7,18:4
7,20:3
7,21:1
7,22:8
7,24:3
7,25:1
7,26:6
7,27:1
7,28:3
7,29:6
7,30:1
7,31:1
7,32:1
7,33:6
7,34:6
7,35:2
7,36:3
7,37:3
7,38:5
7,39:2
7,40:2
7,41:3
7,42:3
7,43:2
7,44:1
8,1:2
8,2:2
8,3:3
8,4:2
8,6:2
8,7:5
8,9:3
8,10:3
8,11:4
8,13:2
8,14:1
8,15:4
8,16:1
8,17:2
8,18:1
8,19:5
8,20:2
8,21:6
8,22:3
8,23:5
8,24:2
8,25:6
8,26:1
8,27:6
8,28:2
8,29:1
8,30:6
8,31:4
8,32:4
8,33:1
8,34:1
8,35:3
8,36:8
8,37:8
8,39:3
8,40:3
8,41:8
8,42:8
8,43:3
8,44:4
9,2:5
9,4:1
9,5:3
9,6:5
9,7:8
9,8:3
9,11:7
9,12:3
9,16:4
9,18:4
9,19:8
9,23:8
9,24:5
9,27:9
9,28:5
9,30:9
9,32:7
9,33:2
9,34:2
9,35:6
10,1:5
10,2:5
10,5:3
10,6:5
10,7:8
10,8:3
10,11:7
10,12:3
10,13:5
10,14:4
10,15:7
10,16:4
10,17:5
10,18:4
10,19:8
10,20:5
10,21:9
10,23:8
10,24:5
10,25:9
10,26:2
10,27:9
10,28:5
10,29:2
10,30:9
10,31:7
10,32:7
10,33:2
10,34:2
10,35:6
10,36:11
10,37:11
10,38:3
10,39:6
10,40:6
10,41:11
10,42:11
10,43:6
10,44:7
10,45:3
10,46:1
10,47:1
10,48:1
10,49:3
10,51:12
10,52:12
10,53:12
10,54:11
10,55:11
10,56:11
11,2:2
11,3:7
11,4:6
11,5:4
11,6:2
11,7:1
11,8:4
11,10:7
11,12:4
11,13:2
11,14:3
11,16:3
11,18:3
11,19:1
11,22:7
11,23:1
11,24:2
11,27:2
11,28:2
11,30:2
11,33:5
11,34:5
11,35:1
12,1:2
12,2:2
12,3:3
12,4:2
12,6:2
12,7:5
12,9:3
12,10:3
12,11:4
12,13:2
12,14:1
12,15:4
12,16:1
12,17:2
12,18:1
12,19:5
12,22:3
12,23:5
12,24:2
12,27:6
12,28:2
12,30:6
12,32:4
12,33:1
12,34:1
12,35:3
13,3:5
13,4:4
13,5:2
13,7:3
13,8:2
13,10:5
13,12:2
13,14:1
13,15:2
13,16:1
13,18:1
13,19:3
13,22:5
13,23:3
13,27:4
13,30:4
13,32:2
13,33:3
13,34:3
13,35:1
14,2:1
14,3:4
14,4:3
14,5:1
14,6:1
14,7:4
14,8:1
14,10:4
14,12:1
14,13:1
14,15:3
14,17:1
14,19:4
14,22:4
14,23:4
14,24:1
14,27:5
14,28:1
14,30:5
14,32:3
14,33:2
14,34:2
14,35:2
15,2:2
15,3:7
15,4:6
15,5:4
15,6:2
15,7:1
15,8:4
15,10:7
15,12:4
15,13:2
15,14:3
15,16:3
15,17:2
15,18:3
15,19:1
15,22:7
15,23:1
15,24:2
15,27:2
15,28:2
15,30:2
15,33:5
15,34:5
15,35:1
16,1:1
16,2:1
16,3:4
16,4:3
16,5:1
16,6:1
16,7:4
16,8:1
16,9:4
16,10:4
16,11:3
16,12:1
16,13:1
16,15:3
16,17:1
16,20:1
16,21:5
16,22:4
16,24:1
16,25:5
16,26:2
16,27:5
16,28:1
16,29:2
16,30:5
16,32:3
16,33:2
16,34:2
16,35:2
16,44:3
17,3:5
17,4:4
17,5:2
17,7:3
17,8:2
17,10:5
17,16:1
17,18:1
17,19:3
17,22:5
17,23:3
17,27:4
17,30:4
17,32:2
17,33:3
17,34:3
17,35:1
18,1:1
18,2:1
18,3:4
18,4:3
18,5:1
18,6:1
18,7:4
18,8:1
18,9:4
18,10:4
18,11:3
18,12:1
18,13:1
18,15:3
18,17:1
18,19:4
18,20:1
18,21:5
18,22:4
18,24:1
18,25:5
18,26:2
18,27:5
18,28:1
18,29:2
18,30:5
18,32:3
18,33:2
18,34:2
18,35:2
18,44:3
19,1:3
19,2:3
19,3:8
19,4:7
19,5:5
19,6:3
19,8:5
19,9:8
19,10:8
19,11:1
19,12:5
19,13:3
19,14:4
19,15:1
19,17:3
19,20:3
19,21:1
19,22:8
19,24:3
19,25:1
19,26:6
19,27:1
19,28:3
19,29:6
19,30:1
19,32:1
19,33:6
19,34:6
19,35:2
19,44:1
20,3:5
20,4:4
20,5:2
20,7:3
20,8:2
20,10:5
20,16:1
20,18:1
20,19:3
20,21:4
20,22:5
20,23:3
20,25:4
20,27:4
20,30:4
20,32:2
20,33:3
20,34:3
20,35:1
21,2:4
21,4:8
21,5:6
21,6:4
21,7:1
21,8:6
21,10:9
21,16:5
21,18:5
21,19:1
21,22:9
21,23:1
21,24:4
21,26:7
21,28:4
21,32:2
21,33:7
21,34:7
21,35:3
21,44:2
22,1:5
22,2:5
22,4:1
22,5:3
22,6:5
22,7:8
22,8:3
22,11:7
22,12:3
22,13:5
22,14:4
22,15:7
22,16:4
22,17:5
22,18:4
22,19:8
22,20:5
22,21:9
22,23:8
22,24:5
22,25:9
22,26:2
22,27:9
22,28:5
22,29:2
22,31:7
22,32:7
22,33:2
22,35:6
22,44:7
23,1:3
23,2:3
23,3:8
23,4:7
23,5:5
23,8:5
23,9:8
23,10:8
23,11:1
23,12:5
23,13:3
23,14:4
23,15:1
23,17:3
23,20:3
23,21:1
23,22:8
23,24:3
23,25:1
23,26:6
23,27:1
23,28:3
23,29:6
23,30:1
23,31:1
23,32:1
23,33:6
23,34:6
23,35:2
23,44:1
24,3:5
24,4:4
24,5:2
24,7:3
24,8:2
24,9:5
24,10:5
24,11:2
24,12:2
24,14:1
24,15:2
24,16:1
24,18:1
24,19:3
24,21:4
24,22:5
24,23:3
24,25:4
24,26:3
24,27:4
24,29:3
24,30:4
24,31:2
24,32:2
24,33:3
24,34:3
24,35:1
24,44:2
25,3:9
25,4:8
25,5:6
25,6:4
25,7:1
25,8:6
25,10:9
25,16:5
25,18:5
25,19:1
25,22:9
25,23:1
25,24:4
25,26:7
25,28:4
25,29:7
25,31:2
25,32:2
25,33:7
25,34:7
25,35:3
25,36:2
25,37:2
25,38:6
25,39:3
25,40:3
25,41:2
25,42:2
25,43:3
25,44:2
25,45:6
25,46:8
25,47:8
25,48:8
25,49:6
25,50:9
25,51:3
26,2:3
26,4:1
26,5:1
26,6:3
26,7:6
26,8:1
26,10:2
26,16:2
26,18:2
26,19:6
26,22:2
26,23:6
26,24:3
26,25:7
26,27:7
26,28:3
26,30:7
26,32:5
26,35:4
26,44:5
27,1:4
27,2:4
27,4:8
27,5:6
27,6:4
27,7:1
27,8:6
27,9:9
27,10:9
27,11:2
27,12:6
27,13:4
27,14:5
27,15:2
27,16:5
27,17:4
27,18:5
27,19:1
27,20:4
27,23:1
27,24:4
27,26:7
27,28:4
27,29:7
27,31:2
27,32:2
27,33:7
27,35:3
27,44:2
28,3:5
28,4:4
28,5:2
28,7:3
28,8:2
28,9:5
28,10:5
28,11:2
28,12:2
28,14:1
28,15:2
28,16:1
28,18:1
28,19:3
28,21:4
28,22:5
28,23:3
28,25:4
28,26:3
28,27:4
28,29:3
28,30:4
28,31:2
28,32:2
28,33:3
28,34:3
28,36:6
28,37:6
28,38:2
28,39:1
28,40:1
28,41:6
28,42:6
28,44:2
29,2:3
29,4:1
29,5:1
29,6:3
29,7:6
29,8:1
29,10:2
29,16:2
29,18:2
29,19:6
29,22:2
29,23:6
29,24:3
29,25:7
29,27:7
29,28:3
29,30:7
29,31:5
29,32:5
29,35:4
29,44:5
30,1:4
30,2:4
30,4:8
30,5:6
30,6:4
30,7:1
30,8:6
30,9:9
30,10:9
30,11:2
30,12:6
30,13:4
30,14:5
30,15:2
30,16:5
30,17:4
30,18:5
30,19:1
30,20:4
30,23:1
30,24:4
30,26:7
30,28:4
30,29:7
30,31:2
30,32:2
30,33:7
30,34:7
30,35:3
30,44:2
31,2:2
31,4:6
31,5:4
31,7:1
31,8:4
31,10:7
31,22:7
31,25:2
31,27:2
31,28:2
31,30:2
31,33:5
31,34:5
31,35:1
31,36:4
32,1:2
32,2:2
32,3:7
32,4:6
32,5:4
32,6:2
32,7:1
32,8:4
32,9:7
32,10:7
32,12:4
32,13:2
32,14:3
32,16:3
32,17:2
32,18:3
32,19:1
32,20:2
32,21:2
32,22:7
32,23:1
32,24:2
32,25:2
32,26:5
32,27:2
32,29:5
32,30:2
32,33:5
32,34:5
32,35:1
32,36:4
32,37:4
32,38:4
32,39:1
32,40:1
32,41:4
32,42:4
32,43:1
32,45:4
33,1:3
33,2:3
33,3:2
33,4:1
33,5:1
33,6:3
33,7:6
33,8:1
33,9:2
33,10:2
33,11:5
33,12:1
33,13:3
33,14:2
33,15:5
33,16:2
33,17:3
33,18:2
33,19:6
33,20:3
33,21:7
33,22:2
33,23:6
33,24:3
33,25:7
33,27:7
33,30:7
33,31:5
33,32:5
33,35:4
33,36:9
33,37:9
33,38:1
33,39:4
33,40:4
33,41:9
33,42:9
33,44:5
34,1:3
34,2:3
34,4:1
34,5:1
34,6:3
34,7:6
34,8:1
34,9:2
34,10:2
34,11:5
34,12:1
34,13:3
34,14:2
34,15:5
34,16:2
34,17:3
34,18:2
34,19:6
34,20:3
34,21:7
34,23:6
34,24:3
34,25:7
34,28:3
34,31:5
34,32:5
34,35:4
34,36:9
34,44:5
35,1:1
35,2:1
35,3:6
35,4:5
35,5:3
35,6:1
35,7:2
35,8:3
35,9:6
35,10:6
35,11:1
35,12:3
35,13:1
35,14:2
35,15:1
35,16:2
35,17:1
35,18:2
35,19:2
35,20:1
35,21:3
35,22:6
35,23:2
35,24:1
35,25:3
35,26:4
35,27:3
35,29:4
35,30:3
35,31:1
35,32:1
35,34:4
35,36:5
35,37:5
35,38:3
35,41:5
35,42:5
35,44:1
36,2:6
36,4:10
36,7:3
36,8:8
36,10:11
36,25:2
36,28:6
36,32:4
36,33:9
36,35:5
36,38:8
36,44:4
37,2:6
37,4:10
37,7:3
37,8:8
37,10:11
37,25:2
37,28:6
37,32:4
37,33:9
37,35:5
37,38:8
37,39:5
37,40:5
37,44:4
38,4:2
38,7:5
38,10:3
38,28:2
38,32:4
38,33:1
38,35:3
38,37:8
38,39:3
38,40:3
38,41:8
38,42:8
38,43:3
38,44:4
38,46:2
38,47:2
38,48:2
38,50:3
38,51:9
38,52:9
39,2:1
39,4:5
39,7:2
39,8:3
39,10:6
39,25:3
39,28:1
39,32:1
39,33:4
39,38:3
39,41:5
39,42:5
39,44:1
40,2:1
40,4:5
40,7:2
40,8:3
40,10:6
40,25:3
40,28:1
40,32:1
40,33:4
40,38:3
40,41:5
40,42:5
40,44:1
41,2:6
41,4:10
41,7:3
41,8:8
41,10:11
41,25:2
41,28:6
41,32:4
41,33:9
41,35:5
41,38:8
41,39:5
41,40:5
41,44:4
42,2:6
42,4:10
42,7:3
42,8:8
42,10:11
42,25:2
42,28:6
42,32:4
42,33:9
42,35:5
42,38:8
42,39:5
42,40:5
42,43:5
42,44:4
43,2:1
43,4:5
43,8:3
43,10:6
43,25:3
43,32:1
43,38:3
43,44:1
43,45:3
44,2:2
44,4:6
44,5:4
44,6:2
44,7:1
44,10:7
44,16:3
44,18:3
44,19:1
44,22:7
44,23:1
44,24:2
44,25:2
44,26:5
44,27:2
44,28:2
44,29:5
44,30:2
44,33:5
44,34:5
44,35:1
44,36:4
44,37:4
44,38:4
44,39:1
44,40:1
44,41:4
44,42:4
44,43:1
44,45:4
45,2:2
45,4:2
45,10:3
45,25:6
45,46:2
45,48:2
46,2:4
46,10:1
46,25:8
46,38:2
46,49:2
46,50:1
47,2:4
47,10:1
47,25:8
47,38:2
47,49:2
47,50:1
47,51:11
48,2:4
48,10:1
48,25:8
48,38:2
48,49:2
48,50:1
48,51:11
48,52:11
48,53:11
48,54:10
48,55:10
48,56:10
49,2:2
49,4:2
49,10:3
49,25:6
49,46:2
49,47:2
49,48:2
49,50:3
49,51:9
49,52:9
49,53:9
49,54:8
49,55:8
49,56:8
49,57:3
49,58:3
50,2:5
50,4:1
50,25:9
50,38:3
50,47:1
50,48:1
50,49:3
50,51:12
50,52:12
50,53:12
50,54:11
50,55:11
50,56:11
51,2:7
51,4:11
51,10:12
51,25:3
51,38:9
51,48:11
51,49:9
51,50:12
52,4:11
52,10:12
52,48:11
52,49:9
52,50:12
53,4:11
53,10:12
53,48:11
53,49:9
53,50:12
53,54:1
54,4:10
54,10:11
54,48:10
54,49:8
54,50:11
55,4:10
55,10:11
55,49:8
55,50:11
55,57:11
56,4:10
56,10:11
56,48:10
56,49:8
56,50:11
56,57:11
57,4:1
57,49:3
58,4:1

<setup times backward>
1,7:3
1,19:3
1,23:3
1,27:4
1,30:4
1,32:2
1,35:1
2,7:3
2,11:2
2,15:2
2,19:3
2,21:4
2,23:3
2,27:4
2,30:4
2,31:2
2,32:2
2,35:1
2,36:6
2,37:6
2,39:1
2,40:1
2,41:6
2,42:6
2,43:1
2,44:2
2,51:7
3,1:5
3,2:5
3,4:1
3,5:3
3,6:5
3,7:8
3,8:3
3,11:7
3,12:3
3,13:5
3,14:4
3,15:7
3,16:4
3,17:5
3,18:4
3,19:8
3,20:5
3,23:8
3,24:5
3,25:9
3,28:5
3,32:7
3,33:2
3,35:6
4,1:4
4,2:4
4,5:2
4,6:4
4,7:7
4,8:2
4,11:6
4,12:2
4,13:4
4,14:3
4,15:6
4,16:3
4,17:4
4,18:3
4,19:7
4,20:4
4,21:8
4,23:7
4,24:4
4,25:8
4,26:1
4,27:8
4,28:4
4,29:1
4,30:8
4,31:6
4,32:6
4,33:1
4,34:1
4,35:5
4,36:10
4,37:10
4,38:2
4,39:5
4,40:5
4,41:10
4,42:10
4,43:5
4,44:6
4,45:2
4,49:2
4,51:11
4,52:11
4,53:11
4,54:10
4,55:10
4,56:10
5,1:2
5,2:2
5,6:2
5,7:5
5,11:4
5,13:2
5,14:1
5,15:4
5,16:1
5,17:2
5,18:1
5,19:5
5,20:2
5,21:6
5,23:5
5,24:2
5,25:6
5,27:6
5,28:2
5,30:6
5,31:4
5,32:4
5,35:3
5,44:4
6,7:3
6,11:2
6,15:2
6,19:3
6,21:4
6,25:4
6,27:4
6,30:4
6,32:2
6,35:1
6,44:2
7,21:1
7,25:1
7,27:1
7,30:1
7,36:3
7,37:3
7,41:3
7,42:3
8,1:2
8,2:2
8,6:2
8,7:5
8,11:4
8,13:2
8,14:1
8,15:4
8,16:1
8,17:2
8,18:1
8,19:5
8,20:2
8,21:6
8,23:5
8,24:2
8,25:6
8,27:6
8,28:2
8,30:6
8,31:4
8,32:4
8,35:3
8,36:8
8,37:8
8,39:3
8,40:3
8,41:8
8,42:8
8,43:3
9,1:5
9,2:5
9,4:1
9,5:3
9,6:5
9,7:8
9,8:3
9,12:3
9,16:4
9,18:4
9,19:8
9,23:8
9,24:5
9,27:9
9,28:5
9,30:9
9,32:7
9,33:2
9,34:2
9,35:6
10,1:5
10,2:5
10,4:1
10,5:3
10,6:5
10,7:8
10,8:3
10,11:7
10,12:3
10,13:5
10,14:4
10,15:7
10,16:4
10,17:5
10,18:4
10,19:8
10,20:5
10,21:9
10,23:8
10,24:5
10,25:9
10,26:2
10,27:9
10,28:5
10,29:2
10,30:9
10,31:7
10,32:7
10,33:2
10,34:2
10,35:6
10,36:11
10,37:11
10,38:3
10,39:6
10,40:6
10,41:11
10,42:11
10,43:6
10,44:7
10,45:3
10,46:1
10,47:1
10,48:1
10,49:3
10,51:12
10,52:12
10,53:12
10,54:11
10,55:11
10,56:11
11,7:1
11,19:1
11,23:1
11,27:2
11,30:2
12,1:2
12,2:2
12,6:2
12,7:5
12,11:4
12,13:2
12,14:1
12,15:4
12,16:1
12,18:1
12,19:5
12,23:5
12,24:2
12,27:6
12,28:2
12,30:6
12,32:4
12,35:3
13,7:3
13,11:2
13,15:2
13,19:3
13,23:3
13,27:4
13,30:4
13,32:2
13,35:1
14,1:1
14,2:1
14,6:1
14,7:4
14,11:3
14,13:1
14,15:3
14,19:4
14,23:4
14,24:1
14,27:5
14,28:1
14,30:5
14,32:3
14,35:2
15,7:1
15,19:1
15,23:1
15,27:2
15,30:2
16,1:1
16,2:1
16,6:1
16,7:4
16,11:3
16,13:1
16,15:3
16,17:1
16,20:1
16,21:5
16,24:1
16,25:5
16,27:5
16,28:1
16,30:5
16,32:3
16,35:2
16,44:3
17,7:3
17,11:2
17,15:2
17,19:3
17,23:3
17,27:4
17,30:4
17,32:2
17,35:1
18,1:1
18,2:1
18,6:1
18,7:4
18,11:3
18,13:1
18,15:3
18,17:1
18,20:1
18,21:5
18,24:1
18,25:5
18,27:5
18,28:1
18,30:5
18,32:3
18,35:2
18,44:3
19,21:1
19,25:1
19,27:1
19,30:1
20,7:3
20,11:2
20,15:2
20,19:3
20,23:3
20,27:4
20,30:4
20,32:2
20,35:1
22,1:5
22,2:5
22,4:1
22,5:3
22,6:5
22,7:8
22,8:3
22,11:7
22,12:3
22,13:5
22,14:4
22,15:7
22,16:4
22,17:5
22,18:4
22,19:8
22,20:5
22,21:9
22,23:8
22,24:5
22,25:9
22,26:2
22,28:5
22,29:2
22,31:7
22,32:7
22,33:2
22,35:6
22,44:7
23,21:1
23,25:1
23,27:1
23,30:1
24,7:3
24,11:2
24,15:2
24,19:3
24,21:4
24,23:3
24,25:4
24,27:4
24,30:4
24,32:2
24,35:1
24,44:2
25,36:2
25,37:2
25,41:2
25,42:2
25,51:3
26,1:3
26,2:3
26,5:1
26,6:3
26,7:6
26,8:1
26,11:5
26,12:1
26,13:3
26,14:2
26,15:5
26,16:2
26,17:3
26,18:2
26,19:6
26,20:3
26,21:7
26,23:6
26,24:3
26,25:7
26,27:7
26,28:3
26,30:7
26,32:5
26,35:4
26,44:5
28,7:3
28,11:2
28,15:2
28,19:3
28,21:4
28,23:3
28,25:4
28,27:4
28,30:4
28,31:2
28,36:6
28,37:6
28,39:1
28,40:1
28,41:6
28,42:6
28,44:2
29,1:3
29,2:3
29,5:1
29,6:3
29,7:6
29,8:1
29,11:5
29,12:1
29,13:3
29,14:2
29,15:5
29,16:2
29,17:3
29,18:2
29,19:6
29,20:3
29,21:7
29,23:6
29,24:3
29,25:7
29,27:7
29,28:3
29,30:7
29,32:5
29,35:4
29,44:5
31,7:1
31,19:1
31,21:2
31,23:1
31,25:2
31,27:2
31,30:2
32,7:1
32,19:1
32,21:2
32,23:1
32,25:2
32,27:2
32,30:2
32,36:4
32,37:4
32,41:4
32,42:4
33,1:3
33,2:3
33,5:1
33,6:3
33,7:6
33,8:1
33,11:5
33,12:1
33,13:3
33,14:2
33,15:5
33,16:2
33,17:3
33,18:2
33,19:6
33,20:3
33,21:7
33,23:6
33,24:3
33,25:7
33,27:7
33,28:3
33,30:7
33,31:5
33,32:5
33,36:9
33,37:9
33,38:1
33,39:4
33,40:4
33,41:9
33,42:9
33,44:5
34,1:3
34,2:3
34,5:1
34,6:3
34,7:6
34,8:1
34,11:5
34,12:1
34,13:3
34,14:2
34,15:5
34,16:2
34,17:3
34,18:2
34,19:6
34,20:3
34,21:7
34,23:6
34,24:3
34,25:7
34,27:7
34,28:3
34,30:7
34,31:5
34,32:5
34,35:4
34,44:5
35,7:2
35,11:1
35,15:1
35,19:2
35,21:3
35,23:2
35,25:3
35,27:3
35,30:3
35,31:1
35,32:1
35,36:5
35,37:5
35,41:5
35,42:5
35,44:1
38,1:2
38,2:2
38,6:2
38,7:5
38,11:4
38,13:2
38,14:1
38,15:4
38,16:1
38,17:2
38,18:1
38,19:5
38,20:2
38,21:6
38,23:5
38,24:2
38,25:6
38,27:6
38,28:2
38,30:6
38,31:4
38,32:4
38,35:3
38,36:8
38,37:8
38,39:3
38,40:3
38,41:8
38,42:8
38,43:3
38,44:4
38,51:9
39,7:2
39,11:1
39,15:1
39,19:2
39,21:3
39,23:2
39,25:3
39,27:3
39,30:3
39,31:1
39,32:1
39,36:5
39,37:5
39,41:5
39,42:5
39,44:1
40,7:2
40,11:1
40,15:1
40,19:2
40,21:3
40,23:2
40,25:3
40,27:3
40,30:3
40,31:1
40,32:1
40,36:5
40,37:5
40,41:5
40,42:5
40,44:1
43,7:2
43,11:1
43,15:1
43,19:2
43,21:3
43,23:2
43,25:3
43,27:3
43,30:3
43,31:1
43,32:1
43,36:5
43,37:5
43,41:5
43,42:5
43,44:1
44,7:1
44,19:1
44,21:2
44,23:1
44,25:2
44,27:2
44,30:2
44,36:4
44,37:4
44,41:4
44,42:4
45,1:2
45,2:2
45,6:2
45,7:5
45,11:4
45,13:2
45,14:1
45,15:4
45,16:1
45,17:2
45,18:1
45,19:5
45,20:2
45,21:6
45,23:5
45,24:2
45,25:6
45,27:6
45,28:2
45,30:6
45,31:4
45,32:4
45,35:3
45,36:8
45,37:8
45,39:3
45,40:3
45,41:8
45,42:8
45,43:3
45,44:4
46,1:4
46,2:4
46,5:2
46,6:4
46,7:7
46,8:2
46,11:6
46,12:2
46,13:4
46,14:3
46,15:6
46,16:3
46,17:4
46,18:3
46,19:7
46,20:4
46,21:8
46,23:7
46,24:4
46,25:8
46,26:1
46,27:8
46,28:4
46,29:1
46,30:8
46,31:6
46,32:6
46,33:1
46,34:1
46,35:5
46,36:10
46,37:10
46,38:2
46,39:5
46,40:5
46,41:10
46,42:10
46,43:5
46,44:6
46,45:2
46,49:2
47,1:4
47,2:4
47,5:2
47,6:4
47,7:7
47,8:2
47,11:6
47,12:2
47,13:4
47,14:3
47,15:6
47,16:3
47,17:4
47,18:3
47,19:7
47,20:4
47,21:8
47,23:7
47,24:4
47,25:8
47,26:1
47,27:8
47,28:4
47,29:1
47,30:8
47,31:6
47,32:6
47,33:1
47,34:1
47,35:5
47,36:10
47,37:10
47,38:2
47,39:5
47,40:5
47,41:10
47,42:10
47,43:5
47,44:6
47,45:2
47,49:2
48,1:4
48,2:4
48,5:2
48,6:4
48,7:7
48,8:2
48,11:6
48,12:2
48,13:4
48,14:3
48,15:6
48,16:3
48,17:4
48,18:3
48,19:7
48,20:4
48,21:8
48,23:7
48,24:4
48,25:8
48,26:1
48,27:8
48,28:4
48,29:1
48,30:8
48,31:6
48,32:6
48,33:1
48,34:1
48,35:5
48,36:10
48,37:10
48,38:2
48,39:5
48,40:5
48,41:10
48,42:10
48,43:5
48,44:6
48,45:2
48,49:2
48,51:11
48,52:11
48,53:11
48,54:10
48,56:10
49,1:2
49,2:2
49,6:2
49,7:5
49,11:4
49,13:2
49,14:1
49,15:4
49,16:1
49,17:2
49,18:1
49,19:5
49,20:2
49,21:6
49,23:5
49,24:2
49,25:6
49,27:6
49,28:2
49,30:6
49,31:4
49,32:4
49,35:3
49,36:8
49,37:8
49,39:3
49,40:3
49,41:8
49,42:8
49,43:3
49,44:4
49,51:9
49,52:9
49,53:9
49,54:8
49,55:8
49,56:8
50,1:5
50,2:5
50,4:1
50,5:3
50,6:5
50,7:8
50,8:3
50,11:7
50,12:3
50,13:5
50,14:4
50,15:7
50,16:4
50,17:5
50,18:4
50,19:8
50,20:5
50,21:9
50,23:8
50,24:5
50,25:9
50,26:2
50,27:9
50,28:5
50,29:2
50,30:9
50,31:7
50,32:7
50,33:2
50,34:2
50,35:6
50,36:11
50,37:11
50,38:3
50,39:6
50,40:6
50,41:11
50,42:11
50,43:6
50,44:7
50,45:3
50,46:1
50,47:1
50,48:1
50,49:3
50,51:12
50,52:12
50,53:12
50,54:11
50,55:11
50,56:11
54,51:1
54,52:1
54,53:1
55,51:1
55,52:1
55,53:1
56,51:1
56,52:1
56,53:1
57,1:5
57,2:5
57,4:1
57,5:3
57,6:5
57,7:8
57,8:3
57,11:7
57,12:3
57,13:5
57,14:4
57,15:7
57,16:4
57,17:5
57,18:4
57,19:8
57,20:5
57,21:9
57,23:8
57,24:5
57,25:9
57,26:2
57,27:9
57,28:5
57,29:2
57,30:9
57,31:7
57,32:7
57,33:2
57,34:2
57,35:6
57,36:11
57,37:11
57,38:3
57,39:6
57,40:6
57,41:11
57,42:11
57,43:6
57,44:7
57,45:3
57,46:1
57,47:1
57,48:1
57,49:3
57,51:12
57,52:12
57,53:12
57,54:11
57,55:11
57,56:11
58,1:5
58,2:5
58,4:1
58,5:3
58,6:5
58,7:8
58,8:3
58,11:7
58,12:3
58,13:5
58,14:4
58,15:7
58,16:4
58,17:5
58,18:4
58,19:8
58,20:5
58,21:9
58,23:8
58,24:5
58,25:9
58,26:2
58,27:9
58,28:5
58,29:2
58,30:9
58,31:7
58,32:7
58,33:2
58,34:2
58,35:6
58,36:11
58,37:11
58,38:3
58,39:6
58,40:6
58,41:11
58,42:11
58,43:6
58,44:7
58,45:3
58,46:1
58,47:1
58,48:1
58,49:3
58,51:12
58,52:12
58,53:12
58,54:11
58,55:11
58,56:11

<end>

<optimal SALBP-1 value>
17


<rand seed>
467321153

<Lower Bounds>
Lm1=17
Lms1=17
Lm2=7
Lm3=12
Lm4=17
Best=17

<Optimal Stations (Iterations: 10)>
22
